assignment-1/src/main/resources/refrigerator.cnf
p cnf 12 16
6  0
4 5 -7  0
-4 -5 -7  0
1 -2 9 10  0
6 -7  0
6 -8  0
-2 6  0
6 -11  0
-3 6  0
-4 7  0
-5 7  0
-1 2  0
2 -9  0
2 -10  0
2 -6  0
12  0
